solution status: optimal solution found
objective value:                     162256.123765303
d11(0,0)                                            1 	(obj:0)
d11(1,1)                                            1 	(obj:0)
d11(1,2)                                            1 	(obj:0)
d11(2,3)                                            1 	(obj:0)
d11(2,5)                                            1 	(obj:0)
d11(3,7)                                            1 	(obj:0)
d11(3,9)                                            1 	(obj:0)
d11(3,11)                                           1 	(obj:0)
d11(3,13)                                           1 	(obj:0)
d12(3,8)                                            1 	(obj:0)
d12(3,10)                                           1 	(obj:0)
d12(3,12)                                           1 	(obj:0)
d12(3,14)                                           1 	(obj:0)
d21(3,7)                                            1 	(obj:0)
d21(3,8)                                            1 	(obj:0)
STE(1,1)                             4345.56180960782 	(obj:0)
STE(0,0)                                        11025 	(obj:0)
STE(1,2)                             6003.81170849664 	(obj:0)
STE(2,3)                             1805.31191071896 	(obj:0)
STE(2,4)                             3463.56180960782 	(obj:0)
STE(2,5)                             3463.56180960777 	(obj:0)
STE(2,6)                             5121.81170849664 	(obj:0)
STE(3,7)                            -555.749898888816 	(obj:0)
STE(3,8)                             923.311910718958 	(obj:0)
STE(3,9)                             1102.50000000005 	(obj:0)
STE(3,10)                            2581.56180960782 	(obj:0)
STE(3,11)                                      1102.5 	(obj:0)
STE(3,12)                            2581.56180960788 	(obj:0)
STE(3,13)                            2760.74989888886 	(obj:0)
STE(3,14)                            4239.81170849664 	(obj:0)
AVE(2)                               3315.65537776224 	(obj:0)
WB(3)                                3315.65799770399 	(obj:0)
y1(1,1)                              5217.69437135296 	(obj:0)
y1(1,2)                              3725.26946235303 	(obj:0)
y1(2,3)                              1492.42490899998 	(obj:0)
y1(2,5)                              1492.42490899998 	(obj:0)
y1(3,7)                                1331.155628647 	(obj:0)
y1(3,9)                                1331.155628647 	(obj:0)
y1(3,11)                               1331.155628647 	(obj:0)
y1(3,13)                               1331.155628647 	(obj:0)
AVE(3)                               3315.65799770399 	(obj:0)
WG(1)                                3248.33172520918 	(obj:10)
WG(2)                                3315.65537776224 	(obj:10)
BG(1)                                4749.25614351837 	(obj:10)
BG(2)                                880.637121217351 	(obj:10)
BG(3)                                 4031.7320088235 	(obj:10)
AVE(1)                               3248.33172520918 	(obj:0)
